benchmarks/bfuzz0/2275714561211901814789190021166512512.smt2
(set-logic QF_FP)
(declare-const x0 (_ FloatingPoint 11 53))
(declare-const x1 (_ FloatingPoint 11 53))
(declare-const x2 (_ FloatingPoint 11 53))
(declare-const x3 (_ FloatingPoint 11 53))
(declare-const x4 (_ FloatingPoint 11 53))
(declare-const x5 (_ FloatingPoint 11 53))
(declare-const x6 (_ FloatingPoint 11 53))
(declare-const x7 (_ FloatingPoint 11 53))
(declare-const x8 (_ FloatingPoint 11 53))
(declare-const x9 (_ FloatingPoint 11 53))
(declare-const x10 (_ FloatingPoint 11 53))
(assert (fp.geq (fp.sub RNE (fp.add RNE x3 x6) (fp.div RNE x10 x4)) (fp.neg (fp.add RNE x2 x6))))
(assert (fp.geq (fp.neg (fp.sub RNE x4 x0)) (fp.add RNE (fp.neg x5) (fp.sub RNE x8 x0))))
(assert (fp.geq (fp.add RNE (fp.sub RNE x4 x0) (fp.div RNE x4 x9)) (fp.add RNE (fp.add RNE x4 x3) (fp.div RNE x9 x5))))
(assert (fp.geq (fp.add RNE (fp.sub RNE x3 x4) (fp.div RNE x7 x5)) (fp.add RNE (fp.sub RNE x2 x3) (fp.add RNE x1 x3))))
(assert (fp.leq (fp.add RNE (fp.div RNE x0 x3) (fp.sub RNE x4 x8)) (fp.add RNE (fp.sub RNE x10 x6) (fp.add RNE x4 x5))))
(assert (fp.lt (fp.sub RNE (fp.div RNE x1 x10) (fp.div RNE x9 x2)) (fp.sub RNE (fp.add RNE x3 x4) (fp.div RNE x2 x0))))
(assert (fp.lt (fp.sub RNE (fp.mul RNE x7 x10) (fp.neg x3)) (fp.div RNE (fp.neg x9) (fp.mul RNE x8 x3))))
(assert (fp.eq (fp.mul RNE (fp.sub RNE x9 x9) (fp.mul RNE x10 x2)) (fp.mul RNE (fp.add RNE x3 x3) (fp.div RNE x9 x5))))
(assert (fp.geq (fp.neg (fp.sub RNE x1 x3)) (fp.add RNE (fp.mul RNE x4 x5) (fp.neg x10))))
(assert (fp.gt (fp.mul RNE (fp.add RNE x0 x1) (fp.sub RNE x3 x0)) (fp.neg (fp.neg x6))))
(assert (fp.lt (fp.sub RNE (fp.sub RNE x5 x5) (fp.div RNE x1 x4)) (fp.div RNE (fp.mul RNE x10 x3) (fp.mul RNE x0 x8))))
(assert (fp.geq (fp.div RNE (fp.sub RNE x7 x2) (fp.mul RNE x4 x0)) (fp.mul RNE (fp.sub RNE x3 x5) (fp.add RNE x2 x3))))
(check-sat)
