db/data/2275714561211901814789190021166512512.z3.out
-------------------
2500.084770644
